c WARNING: for repeatability, setting FPU to use double precision
d VARIABLES            225576       
d CONSTRAINTS          836244       
c ============================[ Problem Statistics ]=============================
c |                                                                             |
c |  Number of variables:        225576                                         |
c |  Number of clauses:          836244                                         |
c |  Parse time:                   0.14 s                                       |
c |                                                                             |
c ============================[ Search Statistics ]==============================
c | Conflicts |          ORIGINAL         |          LEARNT          | Progress |
c |           |    Vars  Clauses Literals |    Limit  Clauses Lit/Cl |          |
c ===============================================================================
c |       100 |  186944   736614  1848651 |   270091      100      6 | 17.126 % |
c |       250 |  186944   736614  1848651 |   297100      250     39 | 17.126 % |
c |       475 |  186944   736614  1848651 |   326811      475     36 | 17.126 % |
c |       812 |  186944   736614  1848651 |   359492      812     22 | 17.126 % |
c |      1318 |  186944   736614  1848651 |   395441     1318     65 | 17.126 % |
c |      2077 |  186944   736614  1848651 |   434985     2077     61 | 17.126 % |
c |      3216 |  186944   736614  1848651 |   478484     3216     71 | 17.126 % |
c |      4924 |  186943   736610  1848641 |   526332     4923     63 | 17.126 % |
c |      7486 |  186943   736610  1848641 |   578965     7485     57 | 17.126 % |
c |     11330 |  186943   736610  1848641 |   636862    11329     49 | 17.126 % |
c |     17096 |  186943   736610  1848641 |   700548    17095     58 | 17.126 % |
c |     25745 |  186943   736610  1848641 |   770603    25744     62 | 17.126 % |
c |     38719 |  186943   736610  1848641 |   847663    38718    126 | 17.126 % |
c |     58180 |  186943   736610  1848641 |   932430    58179    119 | 17.126 % |
c |     87372 |  186941   736602  1848621 |  1025673    87369    116 | 17.127 % |
c |    131161 |  186940   736598  1848611 |  1128240   131157    122 | 17.128 % |
c |    196845 |  186939   736594  1848601 |  1241064   196840    123 | 17.128 % |
c |    295371 |  186939   736594  1848601 |  1365170   295366    139 | 17.128 % |
c |    443160 |  186939   736594  1848601 |  1501688   443155    133 | 17.128 % |
c |    664843 |  186938   736590  1848591 |  1651856   664837    144 | 17.129 % |
c |    997368 |  186938   736590  1848591 |  1817042   997362    145 | 17.129 % |
c |   1496156 |  186938   736590  1848591 |  1998746  1496150    134 | 17.129 % |
c |   2244338 |  186937   736586  1848581 |  2198621   251379    114 | 17.129 % |
c ===============================================================================
c restarts              : 5116
c conflicts             : 2891710        (1612 /sec)
c decisions             : 7854072        (0.00 % random) (4378 /sec)
c propagations          : 5810543406     (3238659 /sec)
c conflict literals     : 418351608      (28.65 % deleted)
d RESTARTS             5116
d FAILURES             2891710      
d NODES                7854072      
d BACKTRACKS           7854072      
d PROPAGATIONS         5810543406   
d NOGOODSIZE           144.67 
d MEMORY               1668.00 
d TIME                 1794.12 

s UNKNOWN
